14
24
18,21,40
16,30
13
21,35,38
19
32
7
57
48
31,41
3,20
0,40
53
9,22,54
17,33
58
18,49
34,46
31,37
19,31
10,31
37
28
29
31,48
31,58
51
1,31
30,45
10
6
26,36
44
8,45
2,31
8
5
30
30,31
11,31
12
1
45,51
14,45
14,16
32,44,57
45,53
23
41
2
49
6,55
